3861109099473982754502,8,1,2,01,15,1,2,01,3,1,2,013,10,1,2,010,10,1,2,07,5,1,2,014,6,1,2,02,10,1,2,015,11,1,2,010,15,1,2,07,13,1,2,011,6,1,2,011,2,1,2,015,4,1,2,015,3,1,2,02,5,1,2,05,2,1,2,015,1,1,2,010,11,1,2,09,8,1,2,08,3,1,2,05,14,1,2,03,2,1,2,01,12,1,2,012,11,1,2,05,8,1,2,05,1,1,2,07,9,1,2,05,15,1,2,013,15,1,2,01,13,1,2,015,13,1,2,014,3,1,2,02,10,1,2,09,1,1,2,01,12,1,2,013,8,1,2,012,1,1,2,010,14,1,2,013,13,1,2,01,4,1,2,01,13,1,2,010,6,1,2,07,7,1,2,011,6,1,2,04,8,1,2,06,8,1,2,012,13,1,2,011,3,1,2,07,7,1,2,0